
;this file is automatically generated: Mon Feb 10 17:01:40 CST 2020

;declarations generated

(declare-fun oclExcludes ( Int Int) Bool)
(declare-fun Cardinality ( Int) Int)
(declare-fun class41_Class41IntAttr4 ( Int) Int)
(declare-fun class41_Class41IntAttr3 ( Int) Int)
(declare-fun obj_2d07e5cc_3811_4987_9361_235e64be79ad ( Int) Int)
(declare-fun oclSelect ( Int Bool) Int)
(declare-fun Enum0 ( Int) Int)
(declare-fun Enum1 ( Int) Int)
(declare-fun Enum2 ( Int) Int)
(declare-fun container_ ( Int) Int)
(declare-fun type_ddd73628_0263_4a36_a285_e7601a29db67_Class41 ( Int) Bool)
(declare-fun oclIncludes ( Int Int) Bool)
(declare-fun ObjAt ( Int Int) Int)

;formula(s) generated
(assert (! (forall ((v Int)) (=> ( type_ddd73628_0263_4a36_a285_e7601a29db67_Class41 v )  (or (< ( class41_Class41IntAttr3 ( obj_2d07e5cc_3811_4987_9361_235e64be79ad v )  )  12) (and (forall ((v Int)) (=> ( type_ddd73628_0263_4a36_a285_e7601a29db67_Class41 v )  (= ( class41_Class41IntAttr3 ( obj_2d07e5cc_3811_4987_9361_235e64be79ad v )  )  1))) (forall ((v Int)) (=> ( type_ddd73628_0263_4a36_a285_e7601a29db67_Class41 v )  (>= ( class41_Class41IntAttr4 ( obj_2d07e5cc_3811_4987_9361_235e64be79ad v )  )  5))))))):named l0))
(assert (exists ((o Int)) ( type_ddd73628_0263_4a36_a285_e7601a29db67_Class41 ( obj_2d07e5cc_3811_4987_9361_235e64be79ad o )  ) ))

 ;end of formula 